p cnf 324 2448
1 -91 0
1 -92 0
91 -91 0
92 -92 0
16 -103 0
16 -104 0
103 -103 0
104 -104 0
31 -115 0
31 -116 0
115 -115 0
116 -116 0
46 -127 0
46 -128 0
127 -127 0
128 -128 0
61 -139 0
61 -140 0
139 -139 0
140 -140 0
76 -151 0
76 -152 0
151 -151 0
152 -152 0
-2 -91 0
-2 -92 0
91 -91 0
92 -92 0
-17 -103 0
-17 -104 0
103 -103 0
104 -104 0
-32 -115 0
-32 -116 0
115 -115 0
116 -116 0
-47 -127 0
-47 -128 0
127 -127 0
128 -128 0
-62 -139 0
-62 -140 0
139 -139 0
140 -140 0
-77 -151 0
-77 -152 0
151 -151 0
152 -152 0
3 -91 0
3 -92 0
91 -91 0
92 -92 0
18 -103 0
18 -104 0
103 -103 0
104 -104 0
33 -115 0
33 -116 0
115 -115 0
116 -116 0
48 -127 0
48 -128 0
127 -127 0
128 -128 0
63 -139 0
63 -140 0
139 -139 0
140 -140 0
78 -151 0
78 -152 0
151 -151 0
152 -152 0
-4 -91 0
-4 -92 0
91 -91 0
92 -92 0
-19 -103 0
-19 -104 0
103 -103 0
104 -104 0
-34 -115 0
-34 -116 0
115 -115 0
116 -116 0
-49 -127 0
-49 -128 0
127 -127 0
128 -128 0
-64 -139 0
-64 -140 0
139 -139 0
140 -140 0
-79 -151 0
-79 -152 0
151 -151 0
152 -152 0
-5 -91 0
-5 -92 0
91 -91 0
92 -92 0
-20 -103 0
-20 -104 0
103 -103 0
104 -104 0
-35 -115 0
-35 -116 0
115 -115 0
116 -116 0
-50 -127 0
-50 -128 0
127 -127 0
128 -128 0
-65 -139 0
-65 -140 0
139 -139 0
140 -140 0
-80 -151 0
-80 -152 0
151 -151 0
152 -152 0
6 -163 -91 0
-6 163 -91 0
6 163 -92 0
-6 -163 -92 0
21 -163 -103 0
-21 163 -103 0
21 163 -104 0
-21 -163 -104 0
36 -163 -115 0
-36 163 -115 0
36 163 -116 0
-36 -163 -116 0
51 -163 -127 0
-51 163 -127 0
51 163 -128 0
-51 -163 -128 0
66 -163 -139 0
-66 163 -139 0
66 163 -140 0
-66 -163 -140 0
81 -163 -151 0
-81 163 -151 0
81 163 -152 0
-81 -163 -152 0
7 -91 0
7 -92 0
91 -91 0
92 -92 0
22 -103 0
22 -104 0
103 -103 0
104 -104 0
37 -115 0
37 -116 0
115 -115 0
116 -116 0
52 -127 0
52 -128 0
127 -127 0
128 -128 0
67 -139 0
67 -140 0
139 -139 0
140 -140 0
82 -151 0
82 -152 0
151 -151 0
152 -152 0
8 -91 0
8 -92 0
91 -91 0
92 -92 0
23 -103 0
23 -104 0
103 -103 0
104 -104 0
38 -115 0
38 -116 0
115 -115 0
116 -116 0
53 -127 0
53 -128 0
127 -127 0
128 -128 0
68 -139 0
68 -140 0
139 -139 0
140 -140 0
83 -151 0
83 -152 0
151 -151 0
152 -152 0
9 -91 0
9 -92 0
91 -91 0
92 -92 0
24 -103 0
24 -104 0
103 -103 0
104 -104 0
39 -115 0
39 -116 0
115 -115 0
116 -116 0
54 -127 0
54 -128 0
127 -127 0
128 -128 0
69 -139 0
69 -140 0
139 -139 0
140 -140 0
84 -151 0
84 -152 0
151 -151 0
152 -152 0
10 -164 -91 0
-10 164 -91 0
10 164 -92 0
-10 -164 -92 0
25 -164 -103 0
-25 164 -103 0
25 164 -104 0
-25 -164 -104 0
40 -164 -115 0
-40 164 -115 0
40 164 -116 0
-40 -164 -116 0
55 -164 -127 0
-55 164 -127 0
55 164 -128 0
-55 -164 -128 0
70 -164 -139 0
-70 164 -139 0
70 164 -140 0
-70 -164 -140 0
85 -164 -151 0
-85 164 -151 0
85 164 -152 0
-85 -164 -152 0
11 -91 0
11 -92 0
91 -91 0
92 -92 0
26 -103 0
26 -104 0
103 -103 0
104 -104 0
41 -115 0
41 -116 0
115 -115 0
116 -116 0
56 -127 0
56 -128 0
127 -127 0
128 -128 0
71 -139 0
71 -140 0
139 -139 0
140 -140 0
86 -151 0
86 -152 0
151 -151 0
152 -152 0
12 -91 0
12 -92 0
91 -91 0
92 -92 0
27 -103 0
27 -104 0
103 -103 0
104 -104 0
42 -115 0
42 -116 0
115 -115 0
116 -116 0
57 -127 0
57 -128 0
127 -127 0
128 -128 0
72 -139 0
72 -140 0
139 -139 0
140 -140 0
87 -151 0
87 -152 0
151 -151 0
152 -152 0
13 -91 0
13 -92 0
91 -91 0
92 -92 0
28 -103 0
28 -104 0
103 -103 0
104 -104 0
43 -115 0
43 -116 0
115 -115 0
116 -116 0
58 -127 0
58 -128 0
127 -127 0
128 -128 0
73 -139 0
73 -140 0
139 -139 0
140 -140 0
88 -151 0
88 -152 0
151 -151 0
152 -152 0
14 -91 0
14 -92 0
91 -91 0
92 -92 0
29 -103 0
29 -104 0
103 -103 0
104 -104 0
44 -115 0
44 -116 0
115 -115 0
116 -116 0
59 -127 0
59 -128 0
127 -127 0
128 -128 0
74 -139 0
74 -140 0
139 -139 0
140 -140 0
89 -151 0
89 -152 0
151 -151 0
152 -152 0
15 -91 0
15 -92 0
91 -91 0
92 -92 0
30 -103 0
30 -104 0
103 -103 0
104 -104 0
45 -115 0
45 -116 0
115 -115 0
116 -116 0
60 -127 0
60 -128 0
127 -127 0
128 -128 0
75 -139 0
75 -140 0
139 -139 0
140 -140 0
90 -151 0
90 -152 0
151 -151 0
152 -152 0
-253 91 0
253 -91 0
-254 92 0
253 -92 0
-253 -91 0
-254 -92 0
-265 91 253 0
265 -91 0
265 -253 0
-266 92 254 0
266 -92 0
266 -254 0
-265 -103 0
-266 -104 0
-277 103 265 0
277 -103 0
277 -265 0
-278 104 266 0
278 -104 0
278 -266 0
-277 -115 0
-278 -116 0
-289 115 277 0
289 -115 0
289 -277 0
-290 116 278 0
290 -116 0
290 -278 0
-289 -127 0
-290 -128 0
-301 127 289 0
301 -127 0
301 -289 0
-302 128 290 0
302 -128 0
302 -290 0
-301 -139 0
-302 -140 0
-313 139 301 0
313 -139 0
313 -301 0
-314 140 302 0
314 -140 0
314 -302 0
-313 -151 0
-314 -152 0
313 0
314 0
1 -93 0
1 -94 0
93 -93 0
94 -94 0
16 -105 0
16 -106 0
105 -105 0
106 -106 0
31 -117 0
31 -118 0
117 -117 0
118 -118 0
46 -129 0
46 -130 0
129 -129 0
130 -130 0
61 -141 0
61 -142 0
141 -141 0
142 -142 0
76 -153 0
76 -154 0
153 -153 0
154 -154 0
-2 -93 0
-2 -94 0
93 -93 0
94 -94 0
-17 -105 0
-17 -106 0
105 -105 0
106 -106 0
-32 -117 0
-32 -118 0
117 -117 0
118 -118 0
-47 -129 0
-47 -130 0
129 -129 0
130 -130 0
-62 -141 0
-62 -142 0
141 -141 0
142 -142 0
-77 -153 0
-77 -154 0
153 -153 0
154 -154 0
3 -93 0
3 -94 0
93 -93 0
94 -94 0
18 -105 0
18 -106 0
105 -105 0
106 -106 0
33 -117 0
33 -118 0
117 -117 0
118 -118 0
48 -129 0
48 -130 0
129 -129 0
130 -130 0
63 -141 0
63 -142 0
141 -141 0
142 -142 0
78 -153 0
78 -154 0
153 -153 0
154 -154 0
-4 -93 0
-4 -94 0
93 -93 0
94 -94 0
-19 -105 0
-19 -106 0
105 -105 0
106 -106 0
-34 -117 0
-34 -118 0
117 -117 0
118 -118 0
-49 -129 0
-49 -130 0
129 -129 0
130 -130 0
-64 -141 0
-64 -142 0
141 -141 0
142 -142 0
-79 -153 0
-79 -154 0
153 -153 0
154 -154 0
-5 -93 0
-5 -94 0
93 -93 0
94 -94 0
-20 -105 0
-20 -106 0
105 -105 0
106 -106 0
-35 -117 0
-35 -118 0
117 -117 0
118 -118 0
-50 -129 0
-50 -130 0
129 -129 0
130 -130 0
-65 -141 0
-65 -142 0
141 -141 0
142 -142 0
-80 -153 0
-80 -154 0
153 -153 0
154 -154 0
-6 -93 0
-6 -94 0
93 -93 0
94 -94 0
-21 -105 0
-21 -106 0
105 -105 0
106 -106 0
-36 -117 0
-36 -118 0
117 -117 0
118 -118 0
-51 -129 0
-51 -130 0
129 -129 0
130 -130 0
-66 -141 0
-66 -142 0
141 -141 0
142 -142 0
-81 -153 0
-81 -154 0
153 -153 0
154 -154 0
7 -165 -93 0
-7 165 -93 0
7 165 -94 0
-7 -165 -94 0
22 -165 -105 0
-22 165 -105 0
22 165 -106 0
-22 -165 -106 0
37 -165 -117 0
-37 165 -117 0
37 165 -118 0
-37 -165 -118 0
52 -165 -129 0
-52 165 -129 0
52 165 -130 0
-52 -165 -130 0
67 -165 -141 0
-67 165 -141 0
67 165 -142 0
-67 -165 -142 0
82 -165 -153 0
-82 165 -153 0
82 165 -154 0
-82 -165 -154 0
8 -166 -93 0
-8 166 -93 0
8 166 -94 0
-8 -166 -94 0
23 -166 -105 0
-23 166 -105 0
23 166 -106 0
-23 -166 -106 0
38 -166 -117 0
-38 166 -117 0
38 166 -118 0
-38 -166 -118 0
53 -166 -129 0
-53 166 -129 0
53 166 -130 0
-53 -166 -130 0
68 -166 -141 0
-68 166 -141 0
68 166 -142 0
-68 -166 -142 0
83 -166 -153 0
-83 166 -153 0
83 166 -154 0
-83 -166 -154 0
9 -167 -93 0
-9 167 -93 0
9 167 -94 0
-9 -167 -94 0
24 -167 -105 0
-24 167 -105 0
24 167 -106 0
-24 -167 -106 0
39 -167 -117 0
-39 167 -117 0
39 167 -118 0
-39 -167 -118 0
54 -167 -129 0
-54 167 -129 0
54 167 -130 0
-54 -167 -130 0
69 -167 -141 0
-69 167 -141 0
69 167 -142 0
-69 -167 -142 0
84 -167 -153 0
-84 167 -153 0
84 167 -154 0
-84 -167 -154 0
-10 -93 0
-10 -94 0
93 -93 0
94 -94 0
-25 -105 0
-25 -106 0
105 -105 0
106 -106 0
-40 -117 0
-40 -118 0
117 -117 0
118 -118 0
-55 -129 0
-55 -130 0
129 -129 0
130 -130 0
-70 -141 0
-70 -142 0
141 -141 0
142 -142 0
-85 -153 0
-85 -154 0
153 -153 0
154 -154 0
11 -93 0
11 -94 0
93 -93 0
94 -94 0
26 -105 0
26 -106 0
105 -105 0
106 -106 0
41 -117 0
41 -118 0
117 -117 0
118 -118 0
56 -129 0
56 -130 0
129 -129 0
130 -130 0
71 -141 0
71 -142 0
141 -141 0
142 -142 0
86 -153 0
86 -154 0
153 -153 0
154 -154 0
12 -93 0
12 -94 0
93 -93 0
94 -94 0
27 -105 0
27 -106 0
105 -105 0
106 -106 0
42 -117 0
42 -118 0
117 -117 0
118 -118 0
57 -129 0
57 -130 0
129 -129 0
130 -130 0
72 -141 0
72 -142 0
141 -141 0
142 -142 0
87 -153 0
87 -154 0
153 -153 0
154 -154 0
-13 -93 0
-13 -94 0
93 -93 0
94 -94 0
-28 -105 0
-28 -106 0
105 -105 0
106 -106 0
-43 -117 0
-43 -118 0
117 -117 0
118 -118 0
-58 -129 0
-58 -130 0
129 -129 0
130 -130 0
-73 -141 0
-73 -142 0
141 -141 0
142 -142 0
-88 -153 0
-88 -154 0
153 -153 0
154 -154 0
14 -93 0
14 -94 0
93 -93 0
94 -94 0
29 -105 0
29 -106 0
105 -105 0
106 -106 0
44 -117 0
44 -118 0
117 -117 0
118 -118 0
59 -129 0
59 -130 0
129 -129 0
130 -130 0
74 -141 0
74 -142 0
141 -141 0
142 -142 0
89 -153 0
89 -154 0
153 -153 0
154 -154 0
15 -93 0
15 -94 0
93 -93 0
94 -94 0
30 -105 0
30 -106 0
105 -105 0
106 -106 0
45 -117 0
45 -118 0
117 -117 0
118 -118 0
60 -129 0
60 -130 0
129 -129 0
130 -130 0
75 -141 0
75 -142 0
141 -141 0
142 -142 0
90 -153 0
90 -154 0
153 -153 0
154 -154 0
-255 93 0
255 -93 0
-256 94 0
255 -94 0
-255 -93 0
-256 -94 0
-267 93 255 0
267 -93 0
267 -255 0
-268 94 256 0
268 -94 0
268 -256 0
-267 -105 0
-268 -106 0
-279 105 267 0
279 -105 0
279 -267 0
-280 106 268 0
280 -106 0
280 -268 0
-279 -117 0
-280 -118 0
-291 117 279 0
291 -117 0
291 -279 0
-292 118 280 0
292 -118 0
292 -280 0
-291 -129 0
-292 -130 0
-303 129 291 0
303 -129 0
303 -291 0
-304 130 292 0
304 -130 0
304 -292 0
-303 -141 0
-304 -142 0
-315 141 303 0
315 -141 0
315 -303 0
-316 142 304 0
316 -142 0
316 -304 0
-315 -153 0
-316 -154 0
315 0
316 0
1 -95 0
1 -96 0
95 -95 0
96 -96 0
16 -107 0
16 -108 0
107 -107 0
108 -108 0
31 -119 0
31 -120 0
119 -119 0
120 -120 0
46 -131 0
46 -132 0
131 -131 0
132 -132 0
61 -143 0
61 -144 0
143 -143 0
144 -144 0
76 -155 0
76 -156 0
155 -155 0
156 -156 0
-2 -95 0
-2 -96 0
95 -95 0
96 -96 0
-17 -107 0
-17 -108 0
107 -107 0
108 -108 0
-32 -119 0
-32 -120 0
119 -119 0
120 -120 0
-47 -131 0
-47 -132 0
131 -131 0
132 -132 0
-62 -143 0
-62 -144 0
143 -143 0
144 -144 0
-77 -155 0
-77 -156 0
155 -155 0
156 -156 0
3 -95 0
3 -96 0
95 -95 0
96 -96 0
18 -107 0
18 -108 0
107 -107 0
108 -108 0
33 -119 0
33 -120 0
119 -119 0
120 -120 0
48 -131 0
48 -132 0
131 -131 0
132 -132 0
63 -143 0
63 -144 0
143 -143 0
144 -144 0
78 -155 0
78 -156 0
155 -155 0
156 -156 0
-4 -95 0
-4 -96 0
95 -95 0
96 -96 0
-19 -107 0
-19 -108 0
107 -107 0
108 -108 0
-34 -119 0
-34 -120 0
119 -119 0
120 -120 0
-49 -131 0
-49 -132 0
131 -131 0
132 -132 0
-64 -143 0
-64 -144 0
143 -143 0
144 -144 0
-79 -155 0
-79 -156 0
155 -155 0
156 -156 0
-5 -95 0
-5 -96 0
95 -95 0
96 -96 0
-20 -107 0
-20 -108 0
107 -107 0
108 -108 0
-35 -119 0
-35 -120 0
119 -119 0
120 -120 0
-50 -131 0
-50 -132 0
131 -131 0
132 -132 0
-65 -143 0
-65 -144 0
143 -143 0
144 -144 0
-80 -155 0
-80 -156 0
155 -155 0
156 -156 0
-6 -95 0
-6 -96 0
95 -95 0
96 -96 0
-21 -107 0
-21 -108 0
107 -107 0
108 -108 0
-36 -119 0
-36 -120 0
119 -119 0
120 -120 0
-51 -131 0
-51 -132 0
131 -131 0
132 -132 0
-66 -143 0
-66 -144 0
143 -143 0
144 -144 0
-81 -155 0
-81 -156 0
155 -155 0
156 -156 0
7 -168 -95 0
-7 168 -95 0
7 168 -96 0
-7 -168 -96 0
22 -168 -107 0
-22 168 -107 0
22 168 -108 0
-22 -168 -108 0
37 -168 -119 0
-37 168 -119 0
37 168 -120 0
-37 -168 -120 0
52 -168 -131 0
-52 168 -131 0
52 168 -132 0
-52 -168 -132 0
67 -168 -143 0
-67 168 -143 0
67 168 -144 0
-67 -168 -144 0
82 -168 -155 0
-82 168 -155 0
82 168 -156 0
-82 -168 -156 0
8 -169 -95 0
-8 169 -95 0
8 169 -96 0
-8 -169 -96 0
23 -169 -107 0
-23 169 -107 0
23 169 -108 0
-23 -169 -108 0
38 -169 -119 0
-38 169 -119 0
38 169 -120 0
-38 -169 -120 0
53 -169 -131 0
-53 169 -131 0
53 169 -132 0
-53 -169 -132 0
68 -169 -143 0
-68 169 -143 0
68 169 -144 0
-68 -169 -144 0
83 -169 -155 0
-83 169 -155 0
83 169 -156 0
-83 -169 -156 0
9 -170 -95 0
-9 170 -95 0
9 170 -96 0
-9 -170 -96 0
24 -170 -107 0
-24 170 -107 0
24 170 -108 0
-24 -170 -108 0
39 -170 -119 0
-39 170 -119 0
39 170 -120 0
-39 -170 -120 0
54 -170 -131 0
-54 170 -131 0
54 170 -132 0
-54 -170 -132 0
69 -170 -143 0
-69 170 -143 0
69 170 -144 0
-69 -170 -144 0
84 -170 -155 0
-84 170 -155 0
84 170 -156 0
-84 -170 -156 0
10 -171 -95 0
-10 171 -95 0
10 171 -96 0
-10 -171 -96 0
25 -171 -107 0
-25 171 -107 0
25 171 -108 0
-25 -171 -108 0
40 -171 -119 0
-40 171 -119 0
40 171 -120 0
-40 -171 -120 0
55 -171 -131 0
-55 171 -131 0
55 171 -132 0
-55 -171 -132 0
70 -171 -143 0
-70 171 -143 0
70 171 -144 0
-70 -171 -144 0
85 -171 -155 0
-85 171 -155 0
85 171 -156 0
-85 -171 -156 0
11 -95 0
11 -96 0
95 -95 0
96 -96 0
26 -107 0
26 -108 0
107 -107 0
108 -108 0
41 -119 0
41 -120 0
119 -119 0
120 -120 0
56 -131 0
56 -132 0
131 -131 0
132 -132 0
71 -143 0
71 -144 0
143 -143 0
144 -144 0
86 -155 0
86 -156 0
155 -155 0
156 -156 0
12 -95 0
12 -96 0
95 -95 0
96 -96 0
27 -107 0
27 -108 0
107 -107 0
108 -108 0
42 -119 0
42 -120 0
119 -119 0
120 -120 0
57 -131 0
57 -132 0
131 -131 0
132 -132 0
72 -143 0
72 -144 0
143 -143 0
144 -144 0
87 -155 0
87 -156 0
155 -155 0
156 -156 0
13 -95 0
13 -96 0
95 -95 0
96 -96 0
28 -107 0
28 -108 0
107 -107 0
108 -108 0
43 -119 0
43 -120 0
119 -119 0
120 -120 0
58 -131 0
58 -132 0
131 -131 0
132 -132 0
73 -143 0
73 -144 0
143 -143 0
144 -144 0
88 -155 0
88 -156 0
155 -155 0
156 -156 0
14 -172 -95 0
-14 172 -95 0
14 172 -96 0
-14 -172 -96 0
29 -172 -107 0
-29 172 -107 0
29 172 -108 0
-29 -172 -108 0
44 -172 -119 0
-44 172 -119 0
44 172 -120 0
-44 -172 -120 0
59 -172 -131 0
-59 172 -131 0
59 172 -132 0
-59 -172 -132 0
74 -172 -143 0
-74 172 -143 0
74 172 -144 0
-74 -172 -144 0
89 -172 -155 0
-89 172 -155 0
89 172 -156 0
-89 -172 -156 0
15 -95 0
15 -96 0
95 -95 0
96 -96 0
30 -107 0
30 -108 0
107 -107 0
108 -108 0
45 -119 0
45 -120 0
119 -119 0
120 -120 0
60 -131 0
60 -132 0
131 -131 0
132 -132 0
75 -143 0
75 -144 0
143 -143 0
144 -144 0
90 -155 0
90 -156 0
155 -155 0
156 -156 0
-257 95 0
257 -95 0
-258 96 0
257 -96 0
-257 -95 0
-258 -96 0
-269 95 257 0
269 -95 0
269 -257 0
-270 96 258 0
270 -96 0
270 -258 0
-269 -107 0
-270 -108 0
-281 107 269 0
281 -107 0
281 -269 0
-282 108 270 0
282 -108 0
282 -270 0
-281 -119 0
-282 -120 0
-293 119 281 0
293 -119 0
293 -281 0
-294 120 282 0
294 -120 0
294 -282 0
-293 -131 0
-294 -132 0
-305 131 293 0
305 -131 0
305 -293 0
-306 132 294 0
306 -132 0
306 -294 0
-305 -143 0
-306 -144 0
-317 143 305 0
317 -143 0
317 -305 0
-318 144 306 0
318 -144 0
318 -306 0
-317 -155 0
-318 -156 0
317 0
318 0
1 -97 0
1 -98 0
97 -97 0
98 -98 0
16 -109 0
16 -110 0
109 -109 0
110 -110 0
31 -121 0
31 -122 0
121 -121 0
122 -122 0
46 -133 0
46 -134 0
133 -133 0
134 -134 0
61 -145 0
61 -146 0
145 -145 0
146 -146 0
76 -157 0
76 -158 0
157 -157 0
158 -158 0
-2 -97 0
-2 -98 0
97 -97 0
98 -98 0
-17 -109 0
-17 -110 0
109 -109 0
110 -110 0
-32 -121 0
-32 -122 0
121 -121 0
122 -122 0
-47 -133 0
-47 -134 0
133 -133 0
134 -134 0
-62 -145 0
-62 -146 0
145 -145 0
146 -146 0
-77 -157 0
-77 -158 0
157 -157 0
158 -158 0
3 -97 0
3 -98 0
97 -97 0
98 -98 0
18 -109 0
18 -110 0
109 -109 0
110 -110 0
33 -121 0
33 -122 0
121 -121 0
122 -122 0
48 -133 0
48 -134 0
133 -133 0
134 -134 0
63 -145 0
63 -146 0
145 -145 0
146 -146 0
78 -157 0
78 -158 0
157 -157 0
158 -158 0
-4 -97 0
-4 -98 0
97 -97 0
98 -98 0
-19 -109 0
-19 -110 0
109 -109 0
110 -110 0
-34 -121 0
-34 -122 0
121 -121 0
122 -122 0
-49 -133 0
-49 -134 0
133 -133 0
134 -134 0
-64 -145 0
-64 -146 0
145 -145 0
146 -146 0
-79 -157 0
-79 -158 0
157 -157 0
158 -158 0
-5 -97 0
-5 -98 0
97 -97 0
98 -98 0
-20 -109 0
-20 -110 0
109 -109 0
110 -110 0
-35 -121 0
-35 -122 0
121 -121 0
122 -122 0
-50 -133 0
-50 -134 0
133 -133 0
134 -134 0
-65 -145 0
-65 -146 0
145 -145 0
146 -146 0
-80 -157 0
-80 -158 0
157 -157 0
158 -158 0
6 -173 -97 0
-6 173 -97 0
6 173 -98 0
-6 -173 -98 0
21 -173 -109 0
-21 173 -109 0
21 173 -110 0
-21 -173 -110 0
36 -173 -121 0
-36 173 -121 0
36 173 -122 0
-36 -173 -122 0
51 -173 -133 0
-51 173 -133 0
51 173 -134 0
-51 -173 -134 0
66 -173 -145 0
-66 173 -145 0
66 173 -146 0
-66 -173 -146 0
81 -173 -157 0
-81 173 -157 0
81 173 -158 0
-81 -173 -158 0
7 -174 -97 0
-7 174 -97 0
7 174 -98 0
-7 -174 -98 0
22 -174 -109 0
-22 174 -109 0
22 174 -110 0
-22 -174 -110 0
37 -174 -121 0
-37 174 -121 0
37 174 -122 0
-37 -174 -122 0
52 -174 -133 0
-52 174 -133 0
52 174 -134 0
-52 -174 -134 0
67 -174 -145 0
-67 174 -145 0
67 174 -146 0
-67 -174 -146 0
82 -174 -157 0
-82 174 -157 0
82 174 -158 0
-82 -174 -158 0
8 -175 -97 0
-8 175 -97 0
8 175 -98 0
-8 -175 -98 0
23 -175 -109 0
-23 175 -109 0
23 175 -110 0
-23 -175 -110 0
38 -175 -121 0
-38 175 -121 0
38 175 -122 0
-38 -175 -122 0
53 -175 -133 0
-53 175 -133 0
53 175 -134 0
-53 -175 -134 0
68 -175 -145 0
-68 175 -145 0
68 175 -146 0
-68 -175 -146 0
83 -175 -157 0
-83 175 -157 0
83 175 -158 0
-83 -175 -158 0
9 -97 0
9 -98 0
97 -97 0
98 -98 0
24 -109 0
24 -110 0
109 -109 0
110 -110 0
39 -121 0
39 -122 0
121 -121 0
122 -122 0
54 -133 0
54 -134 0
133 -133 0
134 -134 0
69 -145 0
69 -146 0
145 -145 0
146 -146 0
84 -157 0
84 -158 0
157 -157 0
158 -158 0
-10 -97 0
-10 -98 0
97 -97 0
98 -98 0
-25 -109 0
-25 -110 0
109 -109 0
110 -110 0
-40 -121 0
-40 -122 0
121 -121 0
122 -122 0
-55 -133 0
-55 -134 0
133 -133 0
134 -134 0
-70 -145 0
-70 -146 0
145 -145 0
146 -146 0
-85 -157 0
-85 -158 0
157 -157 0
158 -158 0
11 -176 -97 0
-11 176 -97 0
11 176 -98 0
-11 -176 -98 0
26 -176 -109 0
-26 176 -109 0
26 176 -110 0
-26 -176 -110 0
41 -176 -121 0
-41 176 -121 0
41 176 -122 0
-41 -176 -122 0
56 -176 -133 0
-56 176 -133 0
56 176 -134 0
-56 -176 -134 0
71 -176 -145 0
-71 176 -145 0
71 176 -146 0
-71 -176 -146 0
86 -176 -157 0
-86 176 -157 0
86 176 -158 0
-86 -176 -158 0
12 -97 0
12 -98 0
97 -97 0
98 -98 0
27 -109 0
27 -110 0
109 -109 0
110 -110 0
42 -121 0
42 -122 0
121 -121 0
122 -122 0
57 -133 0
57 -134 0
133 -133 0
134 -134 0
72 -145 0
72 -146 0
145 -145 0
146 -146 0
87 -157 0
87 -158 0
157 -157 0
158 -158 0
13 -177 -97 0
-13 177 -97 0
13 177 -98 0
-13 -177 -98 0
28 -177 -109 0
-28 177 -109 0
28 177 -110 0
-28 -177 -110 0
43 -177 -121 0
-43 177 -121 0
43 177 -122 0
-43 -177 -122 0
58 -177 -133 0
-58 177 -133 0
58 177 -134 0
-58 -177 -134 0
73 -177 -145 0
-73 177 -145 0
73 177 -146 0
-73 -177 -146 0
88 -177 -157 0
-88 177 -157 0
88 177 -158 0
-88 -177 -158 0
14 -178 -97 0
-14 178 -97 0
14 178 -98 0
-14 -178 -98 0
29 -178 -109 0
-29 178 -109 0
29 178 -110 0
-29 -178 -110 0
44 -178 -121 0
-44 178 -121 0
44 178 -122 0
-44 -178 -122 0
59 -178 -133 0
-59 178 -133 0
59 178 -134 0
-59 -178 -134 0
74 -178 -145 0
-74 178 -145 0
74 178 -146 0
-74 -178 -146 0
89 -178 -157 0
-89 178 -157 0
89 178 -158 0
-89 -178 -158 0
15 -97 0
15 -98 0
97 -97 0
98 -98 0
30 -109 0
30 -110 0
109 -109 0
110 -110 0
45 -121 0
45 -122 0
121 -121 0
122 -122 0
60 -133 0
60 -134 0
133 -133 0
134 -134 0
75 -145 0
75 -146 0
145 -145 0
146 -146 0
90 -157 0
90 -158 0
157 -157 0
158 -158 0
-259 97 0
259 -97 0
-260 98 0
259 -98 0
-259 -97 0
-260 -98 0
-271 97 259 0
271 -97 0
271 -259 0
-272 98 260 0
272 -98 0
272 -260 0
-271 -109 0
-272 -110 0
-283 109 271 0
283 -109 0
283 -271 0
-284 110 272 0
284 -110 0
284 -272 0
-283 -121 0
-284 -122 0
-295 121 283 0
295 -121 0
295 -283 0
-296 122 284 0
296 -122 0
296 -284 0
-295 -133 0
-296 -134 0
-307 133 295 0
307 -133 0
307 -295 0
-308 134 296 0
308 -134 0
308 -296 0
-307 -145 0
-308 -146 0
-319 145 307 0
319 -145 0
319 -307 0
-320 146 308 0
320 -146 0
320 -308 0
-319 -157 0
-320 -158 0
319 0
320 0
1 -99 0
1 -100 0
99 -99 0
100 -100 0
16 -111 0
16 -112 0
111 -111 0
112 -112 0
31 -123 0
31 -124 0
123 -123 0
124 -124 0
46 -135 0
46 -136 0
135 -135 0
136 -136 0
61 -147 0
61 -148 0
147 -147 0
148 -148 0
76 -159 0
76 -160 0
159 -159 0
160 -160 0
-2 -99 0
-2 -100 0
99 -99 0
100 -100 0
-17 -111 0
-17 -112 0
111 -111 0
112 -112 0
-32 -123 0
-32 -124 0
123 -123 0
124 -124 0
-47 -135 0
-47 -136 0
135 -135 0
136 -136 0
-62 -147 0
-62 -148 0
147 -147 0
148 -148 0
-77 -159 0
-77 -160 0
159 -159 0
160 -160 0
3 -99 0
3 -100 0
99 -99 0
100 -100 0
18 -111 0
18 -112 0
111 -111 0
112 -112 0
33 -123 0
33 -124 0
123 -123 0
124 -124 0
48 -135 0
48 -136 0
135 -135 0
136 -136 0
63 -147 0
63 -148 0
147 -147 0
148 -148 0
78 -159 0
78 -160 0
159 -159 0
160 -160 0
4 -179 -99 0
-4 179 -99 0
4 179 -100 0
-4 -179 -100 0
19 -179 -111 0
-19 179 -111 0
19 179 -112 0
-19 -179 -112 0
34 -179 -123 0
-34 179 -123 0
34 179 -124 0
-34 -179 -124 0
49 -179 -135 0
-49 179 -135 0
49 179 -136 0
-49 -179 -136 0
64 -179 -147 0
-64 179 -147 0
64 179 -148 0
-64 -179 -148 0
79 -179 -159 0
-79 179 -159 0
79 179 -160 0
-79 -179 -160 0
5 -180 -99 0
-5 180 -99 0
5 180 -100 0
-5 -180 -100 0
20 -180 -111 0
-20 180 -111 0
20 180 -112 0
-20 -180 -112 0
35 -180 -123 0
-35 180 -123 0
35 180 -124 0
-35 -180 -124 0
50 -180 -135 0
-50 180 -135 0
50 180 -136 0
-50 -180 -136 0
65 -180 -147 0
-65 180 -147 0
65 180 -148 0
-65 -180 -148 0
80 -180 -159 0
-80 180 -159 0
80 180 -160 0
-80 -180 -160 0
6 -181 -99 0
-6 181 -99 0
6 181 -100 0
-6 -181 -100 0
21 -181 -111 0
-21 181 -111 0
21 181 -112 0
-21 -181 -112 0
36 -181 -123 0
-36 181 -123 0
36 181 -124 0
-36 -181 -124 0
51 -181 -135 0
-51 181 -135 0
51 181 -136 0
-51 -181 -136 0
66 -181 -147 0
-66 181 -147 0
66 181 -148 0
-66 -181 -148 0
81 -181 -159 0
-81 181 -159 0
81 181 -160 0
-81 -181 -160 0
-7 -99 0
-7 -100 0
99 -99 0
100 -100 0
-22 -111 0
-22 -112 0
111 -111 0
112 -112 0
-37 -123 0
-37 -124 0
123 -123 0
124 -124 0
-52 -135 0
-52 -136 0
135 -135 0
136 -136 0
-67 -147 0
-67 -148 0
147 -147 0
148 -148 0
-82 -159 0
-82 -160 0
159 -159 0
160 -160 0
8 -99 0
8 -100 0
99 -99 0
100 -100 0
23 -111 0
23 -112 0
111 -111 0
112 -112 0
38 -123 0
38 -124 0
123 -123 0
124 -124 0
53 -135 0
53 -136 0
135 -135 0
136 -136 0
68 -147 0
68 -148 0
147 -147 0
148 -148 0
83 -159 0
83 -160 0
159 -159 0
160 -160 0
9 -99 0
9 -100 0
99 -99 0
100 -100 0
24 -111 0
24 -112 0
111 -111 0
112 -112 0
39 -123 0
39 -124 0
123 -123 0
124 -124 0
54 -135 0
54 -136 0
135 -135 0
136 -136 0
69 -147 0
69 -148 0
147 -147 0
148 -148 0
84 -159 0
84 -160 0
159 -159 0
160 -160 0
-10 -99 0
-10 -100 0
99 -99 0
100 -100 0
-25 -111 0
-25 -112 0
111 -111 0
112 -112 0
-40 -123 0
-40 -124 0
123 -123 0
124 -124 0
-55 -135 0
-55 -136 0
135 -135 0
136 -136 0
-70 -147 0
-70 -148 0
147 -147 0
148 -148 0
-85 -159 0
-85 -160 0
159 -159 0
160 -160 0
11 -99 0
11 -100 0
99 -99 0
100 -100 0
26 -111 0
26 -112 0
111 -111 0
112 -112 0
41 -123 0
41 -124 0
123 -123 0
124 -124 0
56 -135 0
56 -136 0
135 -135 0
136 -136 0
71 -147 0
71 -148 0
147 -147 0
148 -148 0
86 -159 0
86 -160 0
159 -159 0
160 -160 0
12 -99 0
12 -100 0
99 -99 0
100 -100 0
27 -111 0
27 -112 0
111 -111 0
112 -112 0
42 -123 0
42 -124 0
123 -123 0
124 -124 0
57 -135 0
57 -136 0
135 -135 0
136 -136 0
72 -147 0
72 -148 0
147 -147 0
148 -148 0
87 -159 0
87 -160 0
159 -159 0
160 -160 0
13 -99 0
13 -100 0
99 -99 0
100 -100 0
28 -111 0
28 -112 0
111 -111 0
112 -112 0
43 -123 0
43 -124 0
123 -123 0
124 -124 0
58 -135 0
58 -136 0
135 -135 0
136 -136 0
73 -147 0
73 -148 0
147 -147 0
148 -148 0
88 -159 0
88 -160 0
159 -159 0
160 -160 0
14 -182 -99 0
-14 182 -99 0
14 182 -100 0
-14 -182 -100 0
29 -182 -111 0
-29 182 -111 0
29 182 -112 0
-29 -182 -112 0
44 -182 -123 0
-44 182 -123 0
44 182 -124 0
-44 -182 -124 0
59 -182 -135 0
-59 182 -135 0
59 182 -136 0
-59 -182 -136 0
74 -182 -147 0
-74 182 -147 0
74 182 -148 0
-74 -182 -148 0
89 -182 -159 0
-89 182 -159 0
89 182 -160 0
-89 -182 -160 0
15 -99 0
15 -100 0
99 -99 0
100 -100 0
30 -111 0
30 -112 0
111 -111 0
112 -112 0
45 -123 0
45 -124 0
123 -123 0
124 -124 0
60 -135 0
60 -136 0
135 -135 0
136 -136 0
75 -147 0
75 -148 0
147 -147 0
148 -148 0
90 -159 0
90 -160 0
159 -159 0
160 -160 0
-261 99 0
261 -99 0
-262 100 0
261 -100 0
-261 -99 0
-262 -100 0
-273 99 261 0
273 -99 0
273 -261 0
-274 100 262 0
274 -100 0
274 -262 0
-273 -111 0
-274 -112 0
-285 111 273 0
285 -111 0
285 -273 0
-286 112 274 0
286 -112 0
286 -274 0
-285 -123 0
-286 -124 0
-297 123 285 0
297 -123 0
297 -285 0
-298 124 286 0
298 -124 0
298 -286 0
-297 -135 0
-298 -136 0
-309 135 297 0
309 -135 0
309 -297 0
-310 136 298 0
310 -136 0
310 -298 0
-309 -147 0
-310 -148 0
-321 147 309 0
321 -147 0
321 -309 0
-322 148 310 0
322 -148 0
322 -310 0
-321 -159 0
-322 -160 0
321 0
322 0
1 -101 0
1 -102 0
101 -101 0
102 -102 0
16 -113 0
16 -114 0
113 -113 0
114 -114 0
31 -125 0
31 -126 0
125 -125 0
126 -126 0
46 -137 0
46 -138 0
137 -137 0
138 -138 0
61 -149 0
61 -150 0
149 -149 0
150 -150 0
76 -161 0
76 -162 0
161 -161 0
162 -162 0
-2 -101 0
-2 -102 0
101 -101 0
102 -102 0
-17 -113 0
-17 -114 0
113 -113 0
114 -114 0
-32 -125 0
-32 -126 0
125 -125 0
126 -126 0
-47 -137 0
-47 -138 0
137 -137 0
138 -138 0
-62 -149 0
-62 -150 0
149 -149 0
150 -150 0
-77 -161 0
-77 -162 0
161 -161 0
162 -162 0
3 -101 0
3 -102 0
101 -101 0
102 -102 0
18 -113 0
18 -114 0
113 -113 0
114 -114 0
33 -125 0
33 -126 0
125 -125 0
126 -126 0
48 -137 0
48 -138 0
137 -137 0
138 -138 0
63 -149 0
63 -150 0
149 -149 0
150 -150 0
78 -161 0
78 -162 0
161 -161 0
162 -162 0
-4 -101 0
-4 -102 0
101 -101 0
102 -102 0
-19 -113 0
-19 -114 0
113 -113 0
114 -114 0
-34 -125 0
-34 -126 0
125 -125 0
126 -126 0
-49 -137 0
-49 -138 0
137 -137 0
138 -138 0
-64 -149 0
-64 -150 0
149 -149 0
150 -150 0
-79 -161 0
-79 -162 0
161 -161 0
162 -162 0
-5 -101 0
-5 -102 0
101 -101 0
102 -102 0
-20 -113 0
-20 -114 0
113 -113 0
114 -114 0
-35 -125 0
-35 -126 0
125 -125 0
126 -126 0
-50 -137 0
-50 -138 0
137 -137 0
138 -138 0
-65 -149 0
-65 -150 0
149 -149 0
150 -150 0
-80 -161 0
-80 -162 0
161 -161 0
162 -162 0
6 -183 -101 0
-6 183 -101 0
6 183 -102 0
-6 -183 -102 0
21 -183 -113 0
-21 183 -113 0
21 183 -114 0
-21 -183 -114 0
36 -183 -125 0
-36 183 -125 0
36 183 -126 0
-36 -183 -126 0
51 -183 -137 0
-51 183 -137 0
51 183 -138 0
-51 -183 -138 0
66 -183 -149 0
-66 183 -149 0
66 183 -150 0
-66 -183 -150 0
81 -183 -161 0
-81 183 -161 0
81 183 -162 0
-81 -183 -162 0
7 -184 -101 0
-7 184 -101 0
7 184 -102 0
-7 -184 -102 0
22 -184 -113 0
-22 184 -113 0
22 184 -114 0
-22 -184 -114 0
37 -184 -125 0
-37 184 -125 0
37 184 -126 0
-37 -184 -126 0
52 -184 -137 0
-52 184 -137 0
52 184 -138 0
-52 -184 -138 0
67 -184 -149 0
-67 184 -149 0
67 184 -150 0
-67 -184 -150 0
82 -184 -161 0
-82 184 -161 0
82 184 -162 0
-82 -184 -162 0
8 -101 0
8 -102 0
101 -101 0
102 -102 0
23 -113 0
23 -114 0
113 -113 0
114 -114 0
38 -125 0
38 -126 0
125 -125 0
126 -126 0
53 -137 0
53 -138 0
137 -137 0
138 -138 0
68 -149 0
68 -150 0
149 -149 0
150 -150 0
83 -161 0
83 -162 0
161 -161 0
162 -162 0
9 -101 0
9 -102 0
101 -101 0
102 -102 0
24 -113 0
24 -114 0
113 -113 0
114 -114 0
39 -125 0
39 -126 0
125 -125 0
126 -126 0
54 -137 0
54 -138 0
137 -137 0
138 -138 0
69 -149 0
69 -150 0
149 -149 0
150 -150 0
84 -161 0
84 -162 0
161 -161 0
162 -162 0
-10 -101 0
-10 -102 0
101 -101 0
102 -102 0
-25 -113 0
-25 -114 0
113 -113 0
114 -114 0
-40 -125 0
-40 -126 0
125 -125 0
126 -126 0
-55 -137 0
-55 -138 0
137 -137 0
138 -138 0
-70 -149 0
-70 -150 0
149 -149 0
150 -150 0
-85 -161 0
-85 -162 0
161 -161 0
162 -162 0
11 -185 -101 0
-11 185 -101 0
11 185 -102 0
-11 -185 -102 0
26 -185 -113 0
-26 185 -113 0
26 185 -114 0
-26 -185 -114 0
41 -185 -125 0
-41 185 -125 0
41 185 -126 0
-41 -185 -126 0
56 -185 -137 0
-56 185 -137 0
56 185 -138 0
-56 -185 -138 0
71 -185 -149 0
-71 185 -149 0
71 185 -150 0
-71 -185 -150 0
86 -185 -161 0
-86 185 -161 0
86 185 -162 0
-86 -185 -162 0
12 -101 0
12 -102 0
101 -101 0
102 -102 0
27 -113 0
27 -114 0
113 -113 0
114 -114 0
42 -125 0
42 -126 0
125 -125 0
126 -126 0
57 -137 0
57 -138 0
137 -137 0
138 -138 0
72 -149 0
72 -150 0
149 -149 0
150 -150 0
87 -161 0
87 -162 0
161 -161 0
162 -162 0
13 -101 0
13 -102 0
101 -101 0
102 -102 0
28 -113 0
28 -114 0
113 -113 0
114 -114 0
43 -125 0
43 -126 0
125 -125 0
126 -126 0
58 -137 0
58 -138 0
137 -137 0
138 -138 0
73 -149 0
73 -150 0
149 -149 0
150 -150 0
88 -161 0
88 -162 0
161 -161 0
162 -162 0
14 -186 -101 0
-14 186 -101 0
14 186 -102 0
-14 -186 -102 0
29 -186 -113 0
-29 186 -113 0
29 186 -114 0
-29 -186 -114 0
44 -186 -125 0
-44 186 -125 0
44 186 -126 0
-44 -186 -126 0
59 -186 -137 0
-59 186 -137 0
59 186 -138 0
-59 -186 -138 0
74 -186 -149 0
-74 186 -149 0
74 186 -150 0
-74 -186 -150 0
89 -186 -161 0
-89 186 -161 0
89 186 -162 0
-89 -186 -162 0
15 -101 0
15 -102 0
101 -101 0
102 -102 0
30 -113 0
30 -114 0
113 -113 0
114 -114 0
45 -125 0
45 -126 0
125 -125 0
126 -126 0
60 -137 0
60 -138 0
137 -137 0
138 -138 0
75 -149 0
75 -150 0
149 -149 0
150 -150 0
90 -161 0
90 -162 0
161 -161 0
162 -162 0
-263 101 0
263 -101 0
-264 102 0
263 -102 0
-263 -101 0
-264 -102 0
-275 101 263 0
275 -101 0
275 -263 0
-276 102 264 0
276 -102 0
276 -264 0
-275 -113 0
-276 -114 0
-287 113 275 0
287 -113 0
287 -275 0
-288 114 276 0
288 -114 0
288 -276 0
-287 -125 0
-288 -126 0
-299 125 287 0
299 -125 0
299 -287 0
-300 126 288 0
300 -126 0
300 -288 0
-299 -137 0
-300 -138 0
-311 137 299 0
311 -137 0
311 -299 0
-312 138 300 0
312 -138 0
312 -300 0
-311 -149 0
-312 -150 0
-323 149 311 0
323 -149 0
323 -311 0
-324 150 312 0
324 -150 0
324 -312 0
-323 -161 0
-324 -162 0
323 0
324 0
